9485 3988  0
9378 3886  1
9245 3751  1
9069 3577  3
9095 3561  3
9366 3834  4
9329 3836  4
9305 3810  4
9184 3691  5
9338 3836  6
9134 3600  7
9107 3611  7
9307 3798  8
9362 3870  10
9324 3824  11
9356 3853  12
9303 3787  13
9344 3840  14
9223 3674  15
9186 3681  15
9362 3869  16
9168 3633  17
9204 3614  17
9198 3629  17
9406 3904  18
9352 3857  19
9425 3933  19
9220 3710  20
9141 3641  21
9213 3705  22
9210 3714  22
9106 3579  23
9099 3602  23
9349 3850  24
9308 3796  25
9278 3786  26
9215 3723  27
9218 3717  27
9455 3942  28
9129 3624  29
9362 3865  30
9091 3576  31
9257 3764  32
9087 3585  33
9065 3566  34
9348 3854  35
9355 3836  35
9337 3778  36
9314 3819  36
9336 3811  36
9226 3734  37
9328 3818  39
9325 3833  39
9308 3816  40
9270 3774  41
9284 3774  42
9212 3702  43
9402 3910  44
9376 3884  45
9383 3883  45
9213 3717  46
9228 3712  46
